c --- [ banner ] -------------------------------------------------------------
c 
c CaDiCaL SAT Solver
c Copyright (c) 2016-2023 A. Biere, M. Fleury, N. Froleyks, K. Fazekas, F. Pollitt
c 
c Version 1.9.5
c g++ (Ubuntu 11.4.0-1ubuntu1~22.04) 11.4.0 -Wall -Wextra -O3 -DNDEBUG -static
c Thu Mar 7 06:16:21 CET 2024 Linux pc101447 6.5.0-17-generic x86_64
c 
c --- [ limit ] --------------------------------------------------------------
c 
c setting time limit to 3600 seconds real time (due to '-t 3600')
c 
c --- [ parsing input ] ------------------------------------------------------
c 
c reading DIMACS file from '/home/oliveras/SAT-comp-2023//8f7cd9fb4b8852fdf9a21c606724c71a-satcoin-genesis-UNSAT-12300.cnf'
c opening file to read '/home/oliveras/SAT-comp-2023//8f7cd9fb4b8852fdf9a21c606724c71a-satcoin-genesis-UNSAT-12300.cnf'
c found 'p cnf 134781 648806' header
c parsed 648806 clauses in 0.37 seconds process time
c 
c --- [ options ] ------------------------------------------------------------
c 
c   --seed=1                       (different from default '0')
c 
c --- [ solving ] ------------------------------------------------------------
c 
c time measured in process time since initialization
c 
c  seconds  reductions  redundant  irredundant
c         MB    restarts       trail       variables
c          level   conflicts       glue          remaining
c 
c *  0.37 88  0 0   0    0    0  0% 0 648661 125485 93%
c {  0.44 102  0 0   0    0    0  0% 0 648661 125485 93%
c i  0.44 102  1 0   0    1    0  0% 0 648661 125475 93%
c -  0.57 103 735 1  46  302  287  3% 11 647021 125475 93%
c }  0.61 104 457 1  85 1000  932  3% 12 647021 125475 93%
c [  0.61 104  0 1  85 1000  932  0% 0 647021 125475 93%
c O  0.72 106 2117 1  85 1003  934 64% 14 647021 125475 93%
c - 13.16 144 27 2  85 1388  924 65% 9 647021 125475 93%
c ] 52.41 144 13 2  86 3001 1674 56% 8 647021 125475 93%
c { 52.41 144 457 2  86 3001 1674  3% 12 647021 125475 93%
c F 52.42 144 457 2  87 3004 1677  4% 12 647021 125475 93%
c - 52.55 144 454 3  91 3017 1349  4% 12 647021 125475 93%
c s 53.85 160 334 3 271 4741 2874  5% 20 646769 125475 93%
c v 54.70 160 334 3 271 4741 2874  5% 20 646524 125475 93%
c w 54.87 160 334 3 271 4741 2874  5% 20 646524 125475 93%
c t 54.89 160 334 3 271 4741 2867  5% 20 646521 125143 93%
c e 55.79 162 334 3 271 4741 1150  5% 20 553892 82880 61%
c s 55.90 172 334 3 271 4741 1144  5% 20 553869 82880 61%
c e 56.02 172 334 3 271 4741 1144  5% 20 553817 82868 61%
c d 56.52 141 325 3 284 5001 1390  4% 20 553811 82866 61%
c 
c  seconds    reductions   redundant   irredundant
c          MB     restarts        trail        variables
c            level   conflicts        glue          remaining
c 
c 3 56.76 141 325 3 284 5001 15946  4% 20 553811 82866 61%
c 3 56.80 141 325 3 284 5001 20506  4% 20 553811 82866 61%
c d 56.92 141 325 3 284 5001 20313  4% 20 553809 82848 61%
c 2 56.96 141 325 3 284 5001 20312  4% 20 553807 82834 61%
c p 57.02 141 325 3 284 5001 25387  4% 20 553807 82794 61%
c d 57.07 141 325 3 284 5001 25133  4% 20 553200 82792 61%
c d 57.11 141 325 3 284 5001 25105  4% 20 553060 82738 61%
c - 57.76 163 320 4 330 5192 4075 10% 25 553053 82738 61%
c # 58.71 163 305 4 436 6005 4830 10% 28 553053 82738 61%
c } 59.93 163 294 4 602 7002 5733  9% 32 553053 82738 61%
c [ 59.93 163 13 4 602 7002 5733 91% 8 553053 82738 61%
c - 77.41 163 22 5 603 7806 5798 86% 8 553053 82738 61%
c I 136.16 164 16 5 604 10006 7180 88% 8 553053 82738 61%
c - 161.81 164 15 6 605 10942 6711 88% 8 553053 82738 61%
c - 262.66 166 12 7 607 14602 7832 91% 8 553053 82738 61%
c 3 271.68 166 12 7 607 15001 19928 90% 8 553053 82738 61%
c 2 271.83 166 12 7 607 15001 24601 90% 8 553048 82736 61%
c p 271.86 166 12 7 607 15001 29319 90% 8 553048 82736 61%
c ] 271.97 166 12 7 607 15003 29320 90% 8 553048 82736 61%
c { 271.97 166 294 7 607 15003 29320  9% 32 553048 82736 61%
c 
c  seconds     reductions    redundant   irredundant
c           MB     restarts         trail        variables
c             level    conflicts        glue          remaining
c 
c B 271.98 166 294 7 609 15008 29325  9% 33 553048 82736 61%
c s 272.71 166 287 7 685 15704 27922  9% 33 552821 82736 61%
c v 273.67 166 287 7 685 15704 27922  9% 33 549080 82736 61%
c w 274.06 166 287 7 685 15704 27890  9% 33 549080 82736 61%
c t 274.07 166 287 7 685 15704 27879  9% 33 549067 82736 61%
c e 274.22 166 287 7 685 15704 27323  9% 33 549018 82694 61%
c s 274.23 166 287 7 685 15704 26959  9% 33 549014 82694 61%
c - 277.20 167 275 8 972 18784 12187  8% 36 549014 82694 61%
c W 282.97 167 273 8 1211 21011 14296  9% 44 549014 82694 61%
c - 287.29 167 267 9 1393 23480 12771 10% 48 549014 82694 61%
c F 289.96 167 264 9 1569 28012 17102  8% 46 549014 82694 61%
c - 290.52 168 264 10 1608 28698 13732  8% 46 549014 82694 61%
c d 290.62 168 262 10 1608 30002 15002  8% 44 549014 82693 61%
c 3 290.68 168 262 10 1608 30002 19541  8% 44 549014 82693 61%
c d 290.81 168 262 10 1608 30002 25321  8% 44 549014 82692 61%
c 2 290.85 168 262 10 1608 30002 25319  8% 44 549014 82692 61%
c p 290.89 168 262 10 1608 30002 29677  8% 44 549014 82690 61%
c d 290.94 168 262 10 1608 30002 29654  8% 44 548989 82689 61%
c d 290.97 168 262 10 1608 30002 29654  8% 44 548983 82686 61%
c } 291.53 168 265 10 1645 31003 30601  8% 44 548983 82686 61%
c 
c  seconds    reductions      redundant  irredundant
c           MB     restarts          trail       variables
c            level      conflicts        glue         remaining
c 
c [ 291.53 168 12 10 1645 31003 30601 90% 8 548983 82686 61%
c s 302.88 168 35 10 1645 32090 31254 85% 9 548957 82686 61%
c v 303.57 168 35 10 1645 32090 31254 85% 9 548948 82686 61%
c w 303.75 168 35 10 1645 32090 31252 85% 9 548948 82686 61%
c t 303.77 168 35 10 1645 32090 31252 85% 9 548946 82686 61%
c e 303.86 168 35 10 1645 32090 31251 85% 9 548944 82683 61%
c s 303.88 168 35 10 1645 32090 31209 85% 9 548944 82683 61%
c - 339.74 168 33 11 1647 34438 20353 80% 9 548944 82683 61%
c B 381.06 168 30 11 1648 36013 21766 81% 9 548944 82683 61%
c - 509.18 168 25 12 1651 40700 18178 83% 9 548944 82683 61%
c i 531.75 168 24 12 1651 41532 18270 84% 9 548944 82678 61%
c W 620.85 168 22 12 1652 45015 17349 84% 9 548887 82678 61%
c - 684.29 168 20 13 1653 47485 15803 84% 9 548887 82678 61%
c i 713.33 168 20 13 1653 48614 15934 84% 9 548887 82677 61%
c i 729.85 168 19 13 1653 49301 16032 84% 9 548887 82675 61%
c d 747.42 168 19 13 1653 50003 14745 84% 9 548795 82657 61%
c d 747.46 168 19 13 1653 50003 14742 84% 9 548783 82651 61%
c 2 747.57 168 19 13 1653 50003 21879 84% 9 548781 82651 61%
c p 747.60 168 19 13 1653 50003 25874 84% 9 548781 82650 61%
c i 782.97 168 18 13 1653 51318 26009 84% 9 548781 82648 61%
c 
c  seconds    reductions      redundant  irredundant
c           MB     restarts          trail       variables
c            level      conflicts        glue         remaining
c 
c i 794.48 168 18 13 1653 51768 26076 84% 9 548781 82645 61%
c i 806.70 168 18 13 1653 52226 26128 84% 8 548781 82626 61%
c i 807.90 168 18 13 1653 52266 26131 84% 8 548781 82622 61%
c i 809.28 168 18 13 1653 52316 26138 84% 8 548781 82593 61%
c i 809.37 168 18 13 1653 52321 26140 84% 8 548781 82535 61%
c i 809.64 168 18 13 1653 52333 26145 84% 8 548781 82534 61%
c ] 809.64 168 18 13 1653 52335 26145 84% 8 548781 82446 61%
c 0 809.64 168 18 13 1653 52335 26145 84% 8 548781 82446 61%
c 
c --- [ result ] -------------------------------------------------------------
c 
s UNSATISFIABLE
c 
c --- [ run-time profiling ] -------------------------------------------------
c 
c process time taken by individual solving procedures
c (percentage relative to process time for solving)
c 
c       802.60   99.18% search
c       779.29   96.30% stable
c        20.88    2.58% unstable
c         6.67    0.82% simplify
c         3.06    0.38% vivify
c         2.36    0.29% walk
c         1.39    0.17% elim
c         0.66    0.08% ternary
c         0.49    0.06% subsume
c         0.37    0.05% parse
c         0.15    0.02% probe
c         0.07    0.01% lucky
c   =================================
c       809.27   99.95% solve
c 
c last line shows process time for solving
c (percentage relative to total process time)
c 
c --- [ statistics ] ---------------------------------------------------------
c 
c chronological:              8212        15.69 %  of conflicts
c conflicts:                 52335        64.67    per second
c decisions:                421674       521.06    per second
c eliminated:                42304        31.39 %  of all variables
c fixed:                      1092         0.81 %  of all variables
c learned:                   51255        97.94 %  per conflict
c learned_lits:           12667677       100.00 %  learned literals
c minimized:                     0         0.00 %  learned literals
c shrunken:                5830876        46.03 %  learned literals
c minishrunken:            3754318        29.64 %  learned literals
c otfs:                        439         0.84 %  of conflict
c propagations:         2282238701         2.82 M  per second
c reduced:                   21099        40.32 %  per conflict
c rephased:                      9      5815.00    interval
c restarts:                   1653        31.66    interval
c stabilizing:                   3        59.84 %  of conflicts
c substituted:                 104         0.08 %  of all variables
c subsumed:                  43825         4.17 %  of all clauses
c strengthened:              22512         2.14 %  of all clauses
c ternary:                   53382         0.61 %  of resolved
c trail reuses:                  0         0.00 %  of incremental calls
c vivified:                   4775         0.45 %  of all clauses
c walked:                        2     26167.50    interval
c weakened:                 192823         2.88    average size
c 
c seconds are measured in process time for solving
c 
c --- [ resources ] ----------------------------------------------------------
c 
c total process time since initialization:       809.64    seconds
c total real time since initialization:          809.74    seconds
c maximum resident set size of process:          184.58    MB
c 
c --- [ shutting down ] ------------------------------------------------------
c 
c exit 20
